NAME : local_14
TYPE : ATSP
DIMENSION : 7
EDGE_WEIGHT_TYPE : EXPLICIT
EDGE_WEIGHT_FORMAT : FULL_MATRIX
EDGE_WEIGHT_SECTION
0 518 10000000 10000000 10000000 959 268 
0 0 617 10000000 10000000 10000000 728 
0 617 0 10000000 10000000 10000000 10000000 
0 10000000 10000000 0 334 369 920 
0 10000000 10000000 334 0 189 823 
0 10000000 10000000 369 189 0 732 
0 10000000 10000000 10000000 10000000 10000000 0 
EOF